20J6M/DAT/20J6MULL-5.dat
20 6
35.2502 35.2502
41.3582 41.3582
22.5351 22.5351
25.2333 25.2333
36.1988 36.1988
8.1943 8.1943
24.1262 24.1262
14.3997 14.3997
46.9054 46.9054
1.5283 1.5283
18.7922 18.7922
13.8898 13.8898
47.0258 47.0258
23.4985 23.4985
1.2409 1.2409
16.1135 16.1135
49.6298 49.6298
40.8761 40.8761
19.5869 19.5869
20.2572 20.2572
84.44