20J6M/SOL/20J6MULL-5.sol
solution status: optimal solution found
objective value:                                84.44
x#1#4                                               1 	(obj:0)
x#2#2                                               1 	(obj:0)
x#3#2                                               1 	(obj:0)
x#4#1                                               1 	(obj:0)
x#5#3                               0.086259765517089 	(obj:0)
x#5#4                               0.913740234482911 	(obj:0)
x#6#3                                               1 	(obj:0)
x#7#1                                               1 	(obj:0)
x#8#3                                               1 	(obj:0)
x#9#5                                               1 	(obj:0)
x#10#3                                              1 	(obj:0)
x#11#3                                              1 	(obj:0)
x#12#3                                              1 	(obj:0)
x#13#2                              0.123459887976387 	(obj:0)
x#13#3                             0.0783697459692339 	(obj:0)
x#13#5                              0.798170366054379 	(obj:0)
x#14#6                                              1 	(obj:0)
x#15#3                                              1 	(obj:0)
x#16#4                                              1 	(obj:0)
x#17#2                              0.297017114717368 	(obj:0)
x#17#6                               0.70297885544572 	(obj:0)
x#18#1                                 0.362639782171 	(obj:0)
x#18#6                                 0.637360217829 	(obj:0)
x#19#3                                              1 	(obj:0)
x#20#1                                              1 	(obj:0)
z                                               84.44 	(obj:1)
